(declare-fun e () String)
(declare-fun c () String)
(declare-fun b () String)
(declare-fun d () String)
(declare-fun a () String)
(declare-fun h () String)
(assert (= (str.++ e "gha") h))
(assert (= (str.++ b "c" e) (str.++ d a "c")))
(assert (= (str.++ d "ah" c) (str.++ a "d" h "e")))

(check-sat)
